data/ILP/exact/instance130.lp
Minimize
obj: 1y_1 + 100000y_2 + 154y_3 + 1y_4 + 100000y_5 + 154y_6 + 7y_7 + 1y_8 + 1y_9 + 7y_10 + 100000y_11 + 7y_12 + 1y_13 + 2y_14 + 100000y_15 + 1y_16 + 7y_17 + 1y_18 + 2y_19 + 100000y_20 + 1y_21 + 1y_22 + 7y_23 + 2y_24 + 100000y_25 + 8y_26 + 100000y_27 + 1y_28 + 1y_29 + 4y_30 + 100000y_31 + 7y_32 + 1y_33 + 4y_34 + 154y_35 + 100000y_36 + 4y_37 + 7y_38 + 1y_39 + 154y_40 + 100000y_41 + 25y_42 + 12y_43 + 1y_44 + 100000y_45 + 12y_46 + 1y_47 + 100000y_48 + 100000y_49 + 360y_50 + 8y_51 + 362y_52 + 258y_53 + 258y_54 + 100000y_55 + 8y_56 + 1y_57 + 368y_58 + 100000y_59 + 1y_60 + 4y_61 + 1y_62 + 100000y_63 + 22y_64 + 100000y_65 + 1y_66 + 4y_67 + 100000y_68 + 1y_69 + 2y_70 + 7y_71 + 15y_72 + 100000y_73 + 2y_74 + 15y_75 + 3y_76 + 100000y_77 + 2y_78 + 7y_79 + 1y_80 + 100000y_81 + 3y_82 + 7y_83 + 3y_84 + 1y_85 + 100000y_86 + 359y_87 + 100000y_88 + 6y_89 + 359y_90 + 100000y_91 + 253y_92 + 6y_93 + 7y_94 + 1y_95 + 100000y_96 + 1y_97 + 100000y_98 + 2y_99 + 1y_100 + 100000y_101 + 2y_102 + 1y_103 + 2y_104 + 100000y_105 + 7y_106 + 1y_107 + 2y_108 + 1y_109 + 100000y_110 + 2y_111 + 100000y_112 + 1y_113 + 1y_114 + 100000y_115 + 2y_116 + 7y_117 + 1y_118 + 1y_119 + 2y_120 + 100000y_121 + 1y_122 + 2y_123 + 1y_124 + 1y_125 + 100000y_126 + 1y_127 + 100000y_128 + 7y_129 + 2y_130 + 1y_131 + 1y_132 + 100000y_133 + 2y_134 + 1y_135 + 1y_136 + 100000y_137 + 2y_138 + 100000y_139 + 7y_140 + 2y_141 + 2y_142 + 1y_143 + 100000y_144 + 2y_145 + 2y_146 + 1y_147 + 2y_148 + 100000y_149 + 1y_150 + 100000y_151 + 1y_152 + 8y_153 + 2y_154 + 1y_155 + 8y_156 + 2y_157 + 100000y_158 + 100000y_159 + 2y_160 + 8y_161 + 2y_162 + 100000y_163 + 2y_164 + 4y_165 + 8y_166 + 100000y_167 + 4y_168 + 8y_169 + 2y_170 + 1y_171 + 2y_172 + 8y_173 + 100000y_174 + 100000y_175 + 2y_176 + 155y_177 + 8y_178 + 2y_179 + 100000y_180 + 8y_181 + 155y_182 + 2y_183 + 8y_184 + 4y_185 + 100000y_186 + 2y_187 + 8y_188 + 100000y_189 + 100000y_190 + 1y_191 + 8y_192 + 2y_193 + 100000y_194 + 8y_195 + 3y_196 + 1y_197 + 2y_198 + 7y_199 + 2y_200 + 1y_201 + 1y_202 + 2y_203 + 3y_204 + 3y_205 + 2y_206 + 1y_207 + 7y_208 + 7y_209 + 15y_210 + 3y_211 + 2y_212 + 15y_213 + 1y_214 + 25y_215 + 2y_216 + 1y_217 + 2y_218 + 15y_219 + 3y_220 + 1y_221 + 2y_222 + 1y_223 + 3y_224 + 1y_225 + 15y_226 + 3y_227 + 4y_228 + 1y_229 + 3y_230 + 4y_231 + 8y_232 + 22y_233 + 12y_234 + 1y_235 + 12y_236 + 8y_237 + 1y_238 + 1y_239 + 4y_240 + 1y_241 + 8y_242 + 1y_243 + 1y_244 + 4y_245 + 1y_246 + 7y_247 + 1y_248 + 4y_249 + 7y_250 + 154y_251 + 8y_252 + 2y_253 + 3y_254 + 3y_255 + 8y_256 + 1y_257 + 8y_258 + 155y_259 + 1y_260 + 1y_261 + 139y_262 + 1y_263 + 7y_264 + 154y_265 + 1y_266 + 1y_267 + 1y_268 + 2y_269 + 253y_270 + 7y_271 + 1y_272 + 1y_273 + 2y_274 + 1y_275 + 362y_276 + 3y_277 + 360y_278 + 8y_279 + 1y_280 + 368y_281 + 8y_282 + 1y_283 + 155y_284 + 8y_285 + 6y_286 + 359y_287 + 359y_288 + 8y_289 + 6y_290 + 258y_291 + 8y_292 + 6y_293 + 139y_294 + 258y_295 + 8y_296 + 6y_297 + 8y_298 + 4y_299 + 2y_300 + 2y_301 + 1y_302 + 8y_303 + 8y_304 + 2y_305 + 2y_306 + 1y_307 + 7y_308 + 2y_309 + 7y_310 + 1y_311 + 2y_312 + 1y_313 + 7y_314 + 2y_315 + 1y_316 + 2y_317 + 7y_318 + 2y_319 + 7y_320 + 1y_321 + 1y_322 + 1y_323 + 2y_324 + 1y_325 + 7y_326 + 2y_327 + 1y_328 + 7y_329 + 1y_330 + 7y_331 + 2y_332 + 1y_333 + 1y_334 + 7y_335 + 2y_336 + 1y_337 + 2y_338 + 7y_339 + 1y_340 + 1y_341 + 2y_342 + 1y_343 + 7y_344 + 1y_345 + 1y_346 + 2y_347 + 7y_348 + 7y_349 + 1y_350 + 1y_351 + 2y_352 + 1y_353 + 2y_354 + 1y_355 + 1y_356 + 7y_357 + 1y_358 + 1y_359 + 1y_360 + 2y_361 + 100000y_362 + 100000y_363 + 100000y_364 + 100000y_365 + 100000y_366 + 100000y_367 + 100000y_368 + 100000y_369 + 100000y_370 + 100000y_371 + 100000y_372 + 100000y_373 + 100000y_374 + 100000y_375 + 100000y_376 + 100000y_377 + 100000y_378 + 100000y_379 + 100000y_380 + 100000y_381 + 100000y_382 + 100000y_383 + 100000y_384 + 100000y_385 + 100000y_386 + 100000y_387 + 100000y_388 + 100000y_389 + 100000y_390 + 100000y_391 + 100000y_392 + 100000y_393 + 100000y_394 + 100000y_395 + 100000y_396 + 100000y_397 + 100000y_398 + 100000y_399 + 100000y_400 + 100000y_401 + 100000y_402 + 100000y_403 + 100000y_404 + 100000y_405 + 100000y_406 + 100000y_407 + 100000y_408 + 100000y_409 + 100000y_410 + 100000y_411 + 100000y_412
Subject To
x_413 = 18
x_416 = 1
x_417 = 1
x_418 = 1
x_419 = 1
x_420 = 1
x_421 = 1
x_422 = 1
x_423 = 1
x_424 = 1
x_425 = 1
x_426 = 1
x_427 = 1
x_428 = 1
x_429 = 1
x_430 = 1
x_431 = 1
x_414 = 1
x_415 = 1
x_1 - 19y_1 <= 0
x_2 - 19y_2 <= 0
x_3 - 19y_3 <= 0
x_4 - 19y_4 <= 0
x_5 - 19y_5 <= 0
x_6 - 19y_6 <= 0
x_7 - 19y_7 <= 0
x_8 - 19y_8 <= 0
x_9 - 19y_9 <= 0
x_10 - 19y_10 <= 0
x_11 - 19y_11 <= 0
x_12 - 19y_12 <= 0
x_13 - 19y_13 <= 0
x_14 - 19y_14 <= 0
x_15 - 19y_15 <= 0
x_16 - 19y_16 <= 0
x_17 - 19y_17 <= 0
x_18 - 19y_18 <= 0
x_19 - 19y_19 <= 0
x_20 - 19y_20 <= 0
x_21 - 19y_21 <= 0
x_22 - 19y_22 <= 0
x_23 - 19y_23 <= 0
x_24 - 19y_24 <= 0
x_25 - 19y_25 <= 0
x_26 - 19y_26 <= 0
x_27 - 19y_27 <= 0
x_28 - 19y_28 <= 0
x_29 - 19y_29 <= 0
x_30 - 19y_30 <= 0
x_31 - 19y_31 <= 0
x_32 - 19y_32 <= 0
x_33 - 19y_33 <= 0
x_34 - 19y_34 <= 0
x_35 - 19y_35 <= 0
x_36 - 19y_36 <= 0
x_37 - 19y_37 <= 0
x_38 - 19y_38 <= 0
x_39 - 19y_39 <= 0
x_40 - 19y_40 <= 0
x_41 - 19y_41 <= 0
x_42 - 19y_42 <= 0
x_43 - 19y_43 <= 0
x_44 - 19y_44 <= 0
x_45 - 19y_45 <= 0
x_46 - 19y_46 <= 0
x_47 - 19y_47 <= 0
x_48 - 19y_48 <= 0
x_49 - 19y_49 <= 0
x_50 - 19y_50 <= 0
x_51 - 19y_51 <= 0
x_52 - 19y_52 <= 0
x_53 - 19y_53 <= 0
x_54 - 19y_54 <= 0
x_55 - 19y_55 <= 0
x_56 - 19y_56 <= 0
x_57 - 19y_57 <= 0
x_58 - 19y_58 <= 0
x_59 - 19y_59 <= 0
x_60 - 19y_60 <= 0
x_61 - 19y_61 <= 0
x_62 - 19y_62 <= 0
x_63 - 19y_63 <= 0
x_64 - 19y_64 <= 0
x_65 - 19y_65 <= 0
x_66 - 19y_66 <= 0
x_67 - 19y_67 <= 0
x_68 - 19y_68 <= 0
x_69 - 19y_69 <= 0
x_70 - 19y_70 <= 0
x_71 - 19y_71 <= 0
x_72 - 19y_72 <= 0
x_73 - 19y_73 <= 0
x_74 - 19y_74 <= 0
x_75 - 19y_75 <= 0
x_76 - 19y_76 <= 0
x_77 - 19y_77 <= 0
x_78 - 19y_78 <= 0
x_79 - 19y_79 <= 0
x_80 - 19y_80 <= 0
x_81 - 19y_81 <= 0
x_82 - 19y_82 <= 0
x_83 - 19y_83 <= 0
x_84 - 19y_84 <= 0
x_85 - 19y_85 <= 0
x_86 - 19y_86 <= 0
x_87 - 19y_87 <= 0
x_88 - 19y_88 <= 0
x_89 - 19y_89 <= 0
x_90 - 19y_90 <= 0
x_91 - 19y_91 <= 0
x_92 - 19y_92 <= 0
x_93 - 19y_93 <= 0
x_94 - 19y_94 <= 0
x_95 - 19y_95 <= 0
x_96 - 19y_96 <= 0
x_97 - 19y_97 <= 0
x_98 - 19y_98 <= 0
x_99 - 19y_99 <= 0
x_100 - 19y_100 <= 0
x_101 - 19y_101 <= 0
x_102 - 19y_102 <= 0
x_103 - 19y_103 <= 0
x_104 - 19y_104 <= 0
x_105 - 19y_105 <= 0
x_106 - 19y_106 <= 0
x_107 - 19y_107 <= 0
x_108 - 19y_108 <= 0
x_109 - 19y_109 <= 0
x_110 - 19y_110 <= 0
x_111 - 19y_111 <= 0
x_112 - 19y_112 <= 0
x_113 - 19y_113 <= 0
x_114 - 19y_114 <= 0
x_115 - 19y_115 <= 0
x_116 - 19y_116 <= 0
x_117 - 19y_117 <= 0
x_118 - 19y_118 <= 0
x_119 - 19y_119 <= 0
x_120 - 19y_120 <= 0
x_121 - 19y_121 <= 0
x_122 - 19y_122 <= 0
x_123 - 19y_123 <= 0
x_124 - 19y_124 <= 0
x_125 - 19y_125 <= 0
x_126 - 19y_126 <= 0
x_127 - 19y_127 <= 0
x_128 - 19y_128 <= 0
x_129 - 19y_129 <= 0
x_130 - 19y_130 <= 0
x_131 - 19y_131 <= 0
x_132 - 19y_132 <= 0
x_133 - 19y_133 <= 0
x_134 - 19y_134 <= 0
x_135 - 19y_135 <= 0
x_136 - 19y_136 <= 0
x_137 - 19y_137 <= 0
x_138 - 19y_138 <= 0
x_139 - 19y_139 <= 0
x_140 - 19y_140 <= 0
x_141 - 19y_141 <= 0
x_142 - 19y_142 <= 0
x_143 - 19y_143 <= 0
x_144 - 19y_144 <= 0
x_145 - 19y_145 <= 0
x_146 - 19y_146 <= 0
x_147 - 19y_147 <= 0
x_148 - 19y_148 <= 0
x_149 - 19y_149 <= 0
x_150 - 19y_150 <= 0
x_151 - 19y_151 <= 0
x_152 - 19y_152 <= 0
x_153 - 19y_153 <= 0
x_154 - 19y_154 <= 0
x_155 - 19y_155 <= 0
x_156 - 19y_156 <= 0
x_157 - 19y_157 <= 0
x_158 - 19y_158 <= 0
x_159 - 19y_159 <= 0
x_160 - 19y_160 <= 0
x_161 - 19y_161 <= 0
x_162 - 19y_162 <= 0
x_163 - 19y_163 <= 0
x_164 - 19y_164 <= 0
x_165 - 19y_165 <= 0
x_166 - 19y_166 <= 0
x_167 - 19y_167 <= 0
x_168 - 19y_168 <= 0
x_169 - 19y_169 <= 0
x_170 - 19y_170 <= 0
x_171 - 19y_171 <= 0
x_172 - 19y_172 <= 0
x_173 - 19y_173 <= 0
x_174 - 19y_174 <= 0
x_175 - 19y_175 <= 0
x_176 - 19y_176 <= 0
x_177 - 19y_177 <= 0
x_178 - 19y_178 <= 0
x_179 - 19y_179 <= 0
x_180 - 19y_180 <= 0
x_181 - 19y_181 <= 0
x_182 - 19y_182 <= 0
x_183 - 19y_183 <= 0
x_184 - 19y_184 <= 0
x_185 - 19y_185 <= 0
x_186 - 19y_186 <= 0
x_187 - 19y_187 <= 0
x_188 - 19y_188 <= 0
x_189 - 19y_189 <= 0
x_190 - 19y_190 <= 0
x_191 - 19y_191 <= 0
x_192 - 19y_192 <= 0
x_193 - 19y_193 <= 0
x_194 - 19y_194 <= 0
x_195 - 19y_195 <= 0
x_196 - 19y_196 <= 0
x_197 - 19y_197 <= 0
x_198 - 19y_198 <= 0
x_199 - 19y_199 <= 0
x_200 - 19y_200 <= 0
x_201 - 19y_201 <= 0
x_202 - 19y_202 <= 0
x_203 - 19y_203 <= 0
x_204 - 19y_204 <= 0
x_205 - 19y_205 <= 0
x_206 - 19y_206 <= 0
x_207 - 19y_207 <= 0
x_208 - 19y_208 <= 0
x_209 - 19y_209 <= 0
x_210 - 19y_210 <= 0
x_211 - 19y_211 <= 0
x_212 - 19y_212 <= 0
x_213 - 19y_213 <= 0
x_214 - 19y_214 <= 0
x_215 - 19y_215 <= 0
x_216 - 19y_216 <= 0
x_217 - 19y_217 <= 0
x_218 - 19y_218 <= 0
x_219 - 19y_219 <= 0
x_220 - 19y_220 <= 0
x_221 - 19y_221 <= 0
x_222 - 19y_222 <= 0
x_223 - 19y_223 <= 0
x_224 - 19y_224 <= 0
x_225 - 19y_225 <= 0
x_226 - 19y_226 <= 0
x_227 - 19y_227 <= 0
x_228 - 19y_228 <= 0
x_229 - 19y_229 <= 0
x_230 - 19y_230 <= 0
x_231 - 19y_231 <= 0
x_232 - 19y_232 <= 0
x_233 - 19y_233 <= 0
x_234 - 19y_234 <= 0
x_235 - 19y_235 <= 0
x_236 - 19y_236 <= 0
x_237 - 19y_237 <= 0
x_238 - 19y_238 <= 0
x_239 - 19y_239 <= 0
x_240 - 19y_240 <= 0
x_241 - 19y_241 <= 0
x_242 - 19y_242 <= 0
x_243 - 19y_243 <= 0
x_244 - 19y_244 <= 0
x_245 - 19y_245 <= 0
x_246 - 19y_246 <= 0
x_247 - 19y_247 <= 0
x_248 - 19y_248 <= 0
x_249 - 19y_249 <= 0
x_250 - 19y_250 <= 0
x_251 - 19y_251 <= 0
x_252 - 19y_252 <= 0
x_253 - 19y_253 <= 0
x_254 - 19y_254 <= 0
x_255 - 19y_255 <= 0
x_256 - 19y_256 <= 0
x_257 - 19y_257 <= 0
x_258 - 19y_258 <= 0
x_259 - 19y_259 <= 0
x_260 - 19y_260 <= 0
x_261 - 19y_261 <= 0
x_262 - 19y_262 <= 0
x_263 - 19y_263 <= 0
x_264 - 19y_264 <= 0
x_265 - 19y_265 <= 0
x_266 - 19y_266 <= 0
x_267 - 19y_267 <= 0
x_268 - 19y_268 <= 0
x_269 - 19y_269 <= 0
x_270 - 19y_270 <= 0
x_271 - 19y_271 <= 0
x_272 - 19y_272 <= 0
x_273 - 19y_273 <= 0
x_274 - 19y_274 <= 0
x_275 - 19y_275 <= 0
x_276 - 19y_276 <= 0
x_277 - 19y_277 <= 0
x_278 - 19y_278 <= 0
x_279 - 19y_279 <= 0
x_280 - 19y_280 <= 0
x_281 - 19y_281 <= 0
x_282 - 19y_282 <= 0
x_283 - 19y_283 <= 0
x_284 - 19y_284 <= 0
x_285 - 19y_285 <= 0
x_286 - 19y_286 <= 0
x_287 - 19y_287 <= 0
x_288 - 19y_288 <= 0
x_289 - 19y_289 <= 0
x_290 - 19y_290 <= 0
x_291 - 19y_291 <= 0
x_292 - 19y_292 <= 0
x_293 - 19y_293 <= 0
x_294 - 19y_294 <= 0
x_295 - 19y_295 <= 0
x_296 - 19y_296 <= 0
x_297 - 19y_297 <= 0
x_298 - 19y_298 <= 0
x_299 - 19y_299 <= 0
x_300 - 19y_300 <= 0
x_301 - 19y_301 <= 0
x_302 - 19y_302 <= 0
x_303 - 19y_303 <= 0
x_304 - 19y_304 <= 0
x_305 - 19y_305 <= 0
x_306 - 19y_306 <= 0
x_307 - 19y_307 <= 0
x_308 - 19y_308 <= 0
x_309 - 19y_309 <= 0
x_310 - 19y_310 <= 0
x_311 - 19y_311 <= 0
x_312 - 19y_312 <= 0
x_313 - 19y_313 <= 0
x_314 - 19y_314 <= 0
x_315 - 19y_315 <= 0
x_316 - 19y_316 <= 0
x_317 - 19y_317 <= 0
x_318 - 19y_318 <= 0
x_319 - 19y_319 <= 0
x_320 - 19y_320 <= 0
x_321 - 19y_321 <= 0
x_322 - 19y_322 <= 0
x_323 - 19y_323 <= 0
x_324 - 19y_324 <= 0
x_325 - 19y_325 <= 0
x_326 - 19y_326 <= 0
x_327 - 19y_327 <= 0
x_328 - 19y_328 <= 0
x_329 - 19y_329 <= 0
x_330 - 19y_330 <= 0
x_331 - 19y_331 <= 0
x_332 - 19y_332 <= 0
x_333 - 19y_333 <= 0
x_334 - 19y_334 <= 0
x_335 - 19y_335 <= 0
x_336 - 19y_336 <= 0
x_337 - 19y_337 <= 0
x_338 - 19y_338 <= 0
x_339 - 19y_339 <= 0
x_340 - 19y_340 <= 0
x_341 - 19y_341 <= 0
x_342 - 19y_342 <= 0
x_343 - 19y_343 <= 0
x_344 - 19y_344 <= 0
x_345 - 19y_345 <= 0
x_346 - 19y_346 <= 0
x_347 - 19y_347 <= 0
x_348 - 19y_348 <= 0
x_349 - 19y_349 <= 0
x_350 - 19y_350 <= 0
x_351 - 19y_351 <= 0
x_352 - 19y_352 <= 0
x_353 - 19y_353 <= 0
x_354 - 19y_354 <= 0
x_355 - 19y_355 <= 0
x_356 - 19y_356 <= 0
x_357 - 19y_357 <= 0
x_358 - 19y_358 <= 0
x_359 - 19y_359 <= 0
x_360 - 19y_360 <= 0
x_361 - 19y_361 <= 0
x_362 - 19y_362 <= 0
x_363 - 19y_363 <= 0
x_364 - 19y_364 <= 0
x_365 - 19y_365 <= 0
x_366 - 19y_366 <= 0
x_367 - 19y_367 <= 0
x_368 - 19y_368 <= 0
x_369 - 19y_369 <= 0
x_370 - 19y_370 <= 0
x_371 - 19y_371 <= 0
x_372 - 19y_372 <= 0
x_373 - 19y_373 <= 0
x_374 - 19y_374 <= 0
x_375 - 19y_375 <= 0
x_376 - 19y_376 <= 0
x_377 - 19y_377 <= 0
x_378 - 19y_378 <= 0
x_379 - 19y_379 <= 0
x_380 - 19y_380 <= 0
x_381 - 19y_381 <= 0
x_382 - 19y_382 <= 0
x_383 - 19y_383 <= 0
x_384 - 19y_384 <= 0
x_385 - 19y_385 <= 0
x_386 - 19y_386 <= 0
x_387 - 19y_387 <= 0
x_388 - 19y_388 <= 0
x_389 - 19y_389 <= 0
x_390 - 19y_390 <= 0
x_391 - 19y_391 <= 0
x_392 - 19y_392 <= 0
x_393 - 19y_393 <= 0
x_394 - 19y_394 <= 0
x_395 - 19y_395 <= 0
x_396 - 19y_396 <= 0
x_397 - 19y_397 <= 0
x_398 - 19y_398 <= 0
x_399 - 19y_399 <= 0
x_400 - 19y_400 <= 0
x_401 - 19y_401 <= 0
x_402 - 19y_402 <= 0
x_403 - 19y_403 <= 0
x_404 - 19y_404 <= 0
x_405 - 19y_405 <= 0
x_406 - 19y_406 <= 0
x_407 - 19y_407 <= 0
x_408 - 19y_408 <= 0
x_409 - 19y_409 <= 0
x_410 - 19y_410 <= 0
x_411 - 19y_411 <= 0
x_412 - 19y_412 <= 0
x_2 - x_363 +  x_3 - x_35 +  x_1 - x_261 +  x_4 - x_266 = 0
x_5 - x_362 +  x_6 - x_251 +  x_7 - x_264 +  x_8 - x_9 = 0
x_10 - x_271 +  x_9 - x_8 +  x_11 - x_364 = 0
x_15 - x_365 +  x_14 - x_332 +  x_13 - x_95 +  x_12 - x_23 = 0
x_16 - x_353 +  x_19 - x_24 +  x_17 - x_331 +  x_20 - x_366 +  x_18 - x_350 = 0
x_21 - x_356 +  x_25 - x_367 +  x_23 - x_12 +  x_24 - x_19 +  x_22 - x_359 = 0
x_27 - x_369 +  x_29 - x_244 +  x_28 - x_239 +  x_26 - x_232 = 0
x_30 - x_249 +  x_32 - x_247 +  x_31 - x_368 = 0
x_33 - x_39 +  x_34 - x_240 +  x_35 - x_3 +  x_36 - x_371 = 0
x_37 - x_245 +  x_39 - x_33 +  x_41 - x_370 +  x_38 - x_250 +  x_40 - x_265 = 0
x_42 - x_215 +  x_43 - x_234 +  x_45 - x_372 +  x_44 - x_47 = 0
x_47 - x_44 +  x_46 - x_236 +  x_48 - x_373 = 0
x_50 - x_278 +  x_52 - x_276 +  x_49 - x_374 +  x_51 - x_56 +  x_53 - x_291 = 0
x_54 - x_295 +  x_55 - x_375 +  x_56 - x_51 +  x_57 - x_60 = 0
x_58 - x_281 +  x_59 - x_376 +  x_60 - x_57 = 0
x_63 - x_378 +  x_62 - x_66 +  x_61 - x_228 = 0
x_64 - x_233 +  x_66 - x_62 +  x_65 - x_377 +  x_67 - x_231 = 0
x_69 - x_201 +  x_70 - x_203 +  x_68 - x_380 = 0
x_73 - x_379 +  x_71 - x_199 +  x_74 - x_78 +  x_72 - x_213 = 0
x_79 - x_208 +  x_75 - x_219 +  x_76 - x_211 +  x_78 - x_74 +  x_77 - x_381 = 0
x_80 - x_85 +  x_81 - x_382 +  x_82 - x_204 = 0
x_85 - x_80 +  x_86 - x_383 +  x_83 - x_209 +  x_84 - x_205 = 0
x_88 - x_385 +  x_87 - x_287 +  x_89 - x_93 = 0
x_91 - x_384 +  x_93 - x_89 +  x_92 - x_270 +  x_90 - x_288 = 0
x_95 - x_13 +  x_94 - x_357 +  x_96 - x_388 = 0
x_98 - x_387 +  x_97 - x_358 +  x_99 - x_102 +  x_100 - x_360 = 0
x_101 - x_386 +  x_102 - x_99 = 0
x_105 - x_390 +  x_103 - x_316 +  x_104 - x_327 +  x_106 - x_348 = 0
x_110 - x_391 +  x_107 - x_124 +  x_108 - x_111 +  x_109 - x_346 = 0
x_114 - x_355 +  x_113 - x_351 +  x_112 - x_389 +  x_111 - x_108 = 0
x_117 - x_339 +  x_118 - x_311 +  x_116 - x_317 +  x_115 - x_392 = 0
x_121 - x_393 +  x_122 - x_340 +  x_120 - x_123 +  x_119 - x_135 = 0
x_123 - x_120 +  x_126 - x_394 +  x_124 - x_107 +  x_125 - x_343 = 0
x_130 - x_312 +  x_128 - x_395 +  x_127 - x_307 +  x_129 - x_326 = 0
x_131 - x_323 +  x_132 - x_147 +  x_133 - x_397 +  x_134 - x_138 = 0
x_137 - x_396 +  x_136 - x_333 +  x_135 - x_119 +  x_138 - x_134 = 0
x_141 - x_309 +  x_140 - x_314 +  x_142 - x_305 +  x_139 - x_398 = 0
x_143 - x_313 +  x_144 - x_399 +  x_145 - x_160 +  x_146 - x_148 = 0
x_148 - x_146 +  x_149 - x_400 +  x_150 - x_322 +  x_147 - x_132 = 0
x_153 - x_156 +  x_152 - x_302 +  x_154 - x_306 +  x_151 - x_401 = 0
x_157 - x_162 +  x_158 - x_403 +  x_155 - x_171 +  x_156 - x_153 = 0
x_162 - x_157 +  x_159 - x_402 +  x_161 - x_304 +  x_160 - x_145 = 0
x_165 - x_299 +  x_163 - x_404 +  x_164 - x_301 +  x_166 - x_169 = 0
x_167 - x_405 +  x_169 - x_166 +  x_170 - x_172 +  x_168 - x_185 = 0
x_172 - x_170 +  x_171 - x_155 +  x_173 - x_303 +  x_174 - x_406 = 0
x_178 - x_181 +  x_176 - x_300 +  x_175 - x_407 +  x_177 - x_259 = 0
x_180 - x_409 +  x_182 - x_284 +  x_179 - x_183 +  x_181 - x_178 = 0
x_186 - x_408 +  x_185 - x_168 +  x_184 - x_298 +  x_183 - x_179 = 0
x_189 - x_412 +  x_188 - x_192 +  x_187 - x_253 = 0
x_191 - x_268 +  x_190 - x_410 +  x_192 - x_188 +  x_193 - x_198 = 0
x_196 - x_277 +  x_197 - x_275 +  x_194 - x_411 +  x_195 - x_252 +  x_198 - x_193 = 0
x_201 - x_69 +  x_199 - x_71 +  x_200 - x_206 = 0
x_202 - x_207 +  x_203 - x_70 +  x_204 - x_82 = 0
x_206 - x_200 +  x_205 - x_84 +  x_207 - x_202 +  x_208 - x_79 = 0
x_211 - x_76 +  x_209 - x_83 +  x_210 - x_226 = 0
x_213 - x_72 +  x_212 - x_218 +  x_214 - x_217 = 0
x_217 - x_214 +  x_215 - x_42 +  x_216 - x_222 = 0
x_221 - x_223 +  x_220 - x_227 +  x_218 - x_212 +  x_219 - x_75 = 0
x_224 - x_230 +  x_223 - x_221 +  x_222 - x_216 = 0
x_225 - x_229 +  x_228 - x_61 +  x_226 - x_210 +  x_227 - x_220 = 0
x_229 - x_225 +  x_231 - x_67 +  x_230 - x_224 = 0
x_234 - x_43 +  x_232 - x_26 +  x_233 - x_64 +  x_235 - x_238 = 0
x_238 - x_235 +  x_237 - x_242 +  x_236 - x_46 = 0
x_239 - x_28 +  x_241 - x_248 +  x_240 - x_34 = 0
x_243 - x_246 +  x_242 - x_237 +  x_244 - x_29 = 0
x_245 - x_37 +  x_248 - x_241 +  x_247 - x_32 +  x_246 - x_243 = 0
x_250 - x_38 +  x_251 - x_6 +  x_249 - x_30 = 0
x_252 - x_195 +  x_253 - x_187 +  x_254 - x_255 = 0
x_255 - x_254 +  x_257 - x_260 +  x_256 - x_279 = 0
x_259 - x_177 +  x_260 - x_257 +  x_258 - x_282 = 0
x_261 - x_1 +  x_263 - x_273 +  x_262 - x_294 = 0
x_265 - x_40 +  x_264 - x_7 +  x_267 - x_272 +  x_266 - x_4 = 0
x_270 - x_92 +  x_268 - x_191 +  x_269 - x_274 = 0
x_273 - x_263 +  x_271 - x_10 +  x_272 - x_267 = 0
x_276 - x_52 +  x_274 - x_269 +  x_275 - x_197 = 0
x_277 - x_196 +  x_280 - x_283 +  x_278 - x_50 +  x_279 - x_256 = 0
x_282 - x_258 +  x_284 - x_182 +  x_281 - x_58 +  x_283 - x_280 = 0
x_285 - x_292 +  x_287 - x_87 +  x_286 - x_290 = 0
x_288 - x_90 +  x_290 - x_286 +  x_289 - x_296 +  x_291 - x_53 = 0
x_293 - x_297 +  x_292 - x_285 +  x_294 - x_262 = 0
x_297 - x_293 +  x_295 - x_54 +  x_296 - x_289 = 0
x_298 - x_184 +  x_300 - x_176 +  x_299 - x_165 = 0
x_303 - x_173 +  x_302 - x_152 +  x_301 - x_164 = 0
x_306 - x_154 +  x_304 - x_161 +  x_305 - x_142 = 0
x_308 - x_320 +  x_309 - x_141 +  x_307 - x_127 = 0
x_310 - x_335 +  x_312 - x_130 +  x_311 - x_118 = 0
x_313 - x_143 +  x_315 - x_319 +  x_314 - x_140 = 0
x_318 - x_344 +  x_317 - x_116 +  x_316 - x_103 = 0
x_319 - x_315 +  x_321 - x_325 +  x_322 - x_150 +  x_320 - x_308 = 0
x_323 - x_131 +  x_325 - x_321 +  x_324 - x_336 +  x_326 - x_129 = 0
x_329 - x_349 +  x_328 - x_330 +  x_327 - x_104 = 0
x_330 - x_328 +  x_331 - x_17 +  x_332 - x_14 = 0
x_336 - x_324 +  x_335 - x_310 +  x_333 - x_136 +  x_334 - x_337 = 0
x_337 - x_334 +  x_339 - x_117 +  x_340 - x_122 +  x_338 - x_342 = 0
x_341 - x_345 +  x_344 - x_318 +  x_342 - x_338 +  x_343 - x_125 = 0
x_346 - x_109 +  x_345 - x_341 +  x_347 - x_352 +  x_348 - x_106 = 0
x_350 - x_18 +  x_351 - x_113 +  x_352 - x_347 +  x_349 - x_329 = 0
x_353 - x_16 +  x_355 - x_114 +  x_354 - x_361 = 0
x_358 - x_97 +  x_357 - x_94 +  x_356 - x_21 = 0
x_360 - x_100 +  x_361 - x_354 +  x_359 - x_22 = 0
x_362 - x_5 +  x_363 - x_2 +  x_413 +  x_364 - x_11 = 0
x_365 - x_15 - x_414 +  x_366 - x_20 +  x_367 - x_25 = 0
x_369 - x_27 +  x_368 - x_31 - x_415 = 0
-x_416 +  x_371 - x_36 +  x_370 - x_41 = 0
x_372 - x_45 +  x_373 - x_48 - x_417 = 0
x_375 - x_55 +  x_374 - x_49 - x_418 +  x_376 - x_59 = 0
x_378 - x_63 - x_419 +  x_377 - x_65 = 0
x_381 - x_77 +  x_379 - x_73 +  x_380 - x_68 - x_420 = 0
-x_421 +  x_383 - x_86 +  x_382 - x_81 = 0
x_384 - x_91 +  x_385 - x_88 - x_422 = 0
x_387 - x_98 +  x_388 - x_96 - x_423 +  x_386 - x_101 = 0
x_391 - x_110 - x_424 +  x_389 - x_112 +  x_390 - x_105 = 0
x_393 - x_121 - x_425 +  x_392 - x_115 +  x_394 - x_126 = 0
-x_426 +  x_397 - x_133 +  x_395 - x_128 +  x_396 - x_137 = 0
x_399 - x_144 +  x_398 - x_139 +  x_400 - x_149 - x_427 = 0
x_403 - x_158 +  x_402 - x_159 - x_428 +  x_401 - x_151 = 0
x_406 - x_174 +  x_405 - x_167 +  x_404 - x_163 - x_429 = 0
x_407 - x_175 +  x_409 - x_180 - x_430 +  x_408 - x_186 = 0
x_412 - x_189 +  x_411 - x_194 - x_431 +  x_410 - x_190 = 0
Bounds
x_1 >= 0
x_2 >= 0
x_3 >= 0
x_4 >= 0
x_5 >= 0
x_6 >= 0
x_7 >= 0
x_8 >= 0
x_9 >= 0
x_10 >= 0
x_11 >= 0
x_12 >= 0
x_13 >= 0
x_14 >= 0
x_15 >= 0
x_16 >= 0
x_17 >= 0
x_18 >= 0
x_19 >= 0
x_20 >= 0
x_21 >= 0
x_22 >= 0
x_23 >= 0
x_24 >= 0
x_25 >= 0
x_26 >= 0
x_27 >= 0
x_28 >= 0
x_29 >= 0
x_30 >= 0
x_31 >= 0
x_32 >= 0
x_33 >= 0
x_34 >= 0
x_35 >= 0
x_36 >= 0
x_37 >= 0
x_38 >= 0
x_39 >= 0
x_40 >= 0
x_41 >= 0
x_42 >= 0
x_43 >= 0
x_44 >= 0
x_45 >= 0
x_46 >= 0
x_47 >= 0
x_48 >= 0
x_49 >= 0
x_50 >= 0
x_51 >= 0
x_52 >= 0
x_53 >= 0
x_54 >= 0
x_55 >= 0
x_56 >= 0
x_57 >= 0
x_58 >= 0
x_59 >= 0
x_60 >= 0
x_61 >= 0
x_62 >= 0
x_63 >= 0
x_64 >= 0
x_65 >= 0
x_66 >= 0
x_67 >= 0
x_68 >= 0
x_69 >= 0
x_70 >= 0
x_71 >= 0
x_72 >= 0
x_73 >= 0
x_74 >= 0
x_75 >= 0
x_76 >= 0
x_77 >= 0
x_78 >= 0
x_79 >= 0
x_80 >= 0
x_81 >= 0
x_82 >= 0
x_83 >= 0
x_84 >= 0
x_85 >= 0
x_86 >= 0
x_87 >= 0
x_88 >= 0
x_89 >= 0
x_90 >= 0
x_91 >= 0
x_92 >= 0
x_93 >= 0
x_94 >= 0
x_95 >= 0
x_96 >= 0
x_97 >= 0
x_98 >= 0
x_99 >= 0
x_100 >= 0
x_101 >= 0
x_102 >= 0
x_103 >= 0
x_104 >= 0
x_105 >= 0
x_106 >= 0
x_107 >= 0
x_108 >= 0
x_109 >= 0
x_110 >= 0
x_111 >= 0
x_112 >= 0
x_113 >= 0
x_114 >= 0
x_115 >= 0
x_116 >= 0
x_117 >= 0
x_118 >= 0
x_119 >= 0
x_120 >= 0
x_121 >= 0
x_122 >= 0
x_123 >= 0
x_124 >= 0
x_125 >= 0
x_126 >= 0
x_127 >= 0
x_128 >= 0
x_129 >= 0
x_130 >= 0
x_131 >= 0
x_132 >= 0
x_133 >= 0
x_134 >= 0
x_135 >= 0
x_136 >= 0
x_137 >= 0
x_138 >= 0
x_139 >= 0
x_140 >= 0
x_141 >= 0
x_142 >= 0
x_143 >= 0
x_144 >= 0
x_145 >= 0
x_146 >= 0
x_147 >= 0
x_148 >= 0
x_149 >= 0
x_150 >= 0
x_151 >= 0
x_152 >= 0
x_153 >= 0
x_154 >= 0
x_155 >= 0
x_156 >= 0
x_157 >= 0
x_158 >= 0
x_159 >= 0
x_160 >= 0
x_161 >= 0
x_162 >= 0
x_163 >= 0
x_164 >= 0
x_165 >= 0
x_166 >= 0
x_167 >= 0
x_168 >= 0
x_169 >= 0
x_170 >= 0
x_171 >= 0
x_172 >= 0
x_173 >= 0
x_174 >= 0
x_175 >= 0
x_176 >= 0
x_177 >= 0
x_178 >= 0
x_179 >= 0
x_180 >= 0
x_181 >= 0
x_182 >= 0
x_183 >= 0
x_184 >= 0
x_185 >= 0
x_186 >= 0
x_187 >= 0
x_188 >= 0
x_189 >= 0
x_190 >= 0
x_191 >= 0
x_192 >= 0
x_193 >= 0
x_194 >= 0
x_195 >= 0
x_196 >= 0
x_197 >= 0
x_198 >= 0
x_199 >= 0
x_200 >= 0
x_201 >= 0
x_202 >= 0
x_203 >= 0
x_204 >= 0
x_205 >= 0
x_206 >= 0
x_207 >= 0
x_208 >= 0
x_209 >= 0
x_210 >= 0
x_211 >= 0
x_212 >= 0
x_213 >= 0
x_214 >= 0
x_215 >= 0
x_216 >= 0
x_217 >= 0
x_218 >= 0
x_219 >= 0
x_220 >= 0
x_221 >= 0
x_222 >= 0
x_223 >= 0
x_224 >= 0
x_225 >= 0
x_226 >= 0
x_227 >= 0
x_228 >= 0
x_229 >= 0
x_230 >= 0
x_231 >= 0
x_232 >= 0
x_233 >= 0
x_234 >= 0
x_235 >= 0
x_236 >= 0
x_237 >= 0
x_238 >= 0
x_239 >= 0
x_240 >= 0
x_241 >= 0
x_242 >= 0
x_243 >= 0
x_244 >= 0
x_245 >= 0
x_246 >= 0
x_247 >= 0
x_248 >= 0
x_249 >= 0
x_250 >= 0
x_251 >= 0
x_252 >= 0
x_253 >= 0
x_254 >= 0
x_255 >= 0
x_256 >= 0
x_257 >= 0
x_258 >= 0
x_259 >= 0
x_260 >= 0
x_261 >= 0
x_262 >= 0
x_263 >= 0
x_264 >= 0
x_265 >= 0
x_266 >= 0
x_267 >= 0
x_268 >= 0
x_269 >= 0
x_270 >= 0
x_271 >= 0
x_272 >= 0
x_273 >= 0
x_274 >= 0
x_275 >= 0
x_276 >= 0
x_277 >= 0
x_278 >= 0
x_279 >= 0
x_280 >= 0
x_281 >= 0
x_282 >= 0
x_283 >= 0
x_284 >= 0
x_285 >= 0
x_286 >= 0
x_287 >= 0
x_288 >= 0
x_289 >= 0
x_290 >= 0
x_291 >= 0
x_292 >= 0
x_293 >= 0
x_294 >= 0
x_295 >= 0
x_296 >= 0
x_297 >= 0
x_298 >= 0
x_299 >= 0
x_300 >= 0
x_301 >= 0
x_302 >= 0
x_303 >= 0
x_304 >= 0
x_305 >= 0
x_306 >= 0
x_307 >= 0
x_308 >= 0
x_309 >= 0
x_310 >= 0
x_311 >= 0
x_312 >= 0
x_313 >= 0
x_314 >= 0
x_315 >= 0
x_316 >= 0
x_317 >= 0
x_318 >= 0
x_319 >= 0
x_320 >= 0
x_321 >= 0
x_322 >= 0
x_323 >= 0
x_324 >= 0
x_325 >= 0
x_326 >= 0
x_327 >= 0
x_328 >= 0
x_329 >= 0
x_330 >= 0
x_331 >= 0
x_332 >= 0
x_333 >= 0
x_334 >= 0
x_335 >= 0
x_336 >= 0
x_337 >= 0
x_338 >= 0
x_339 >= 0
x_340 >= 0
x_341 >= 0
x_342 >= 0
x_343 >= 0
x_344 >= 0
x_345 >= 0
x_346 >= 0
x_347 >= 0
x_348 >= 0
x_349 >= 0
x_350 >= 0
x_351 >= 0
x_352 >= 0
x_353 >= 0
x_354 >= 0
x_355 >= 0
x_356 >= 0
x_357 >= 0
x_358 >= 0
x_359 >= 0
x_360 >= 0
x_361 >= 0
x_362 >= 0
x_363 >= 0
x_364 >= 0
x_365 >= 0
x_366 >= 0
x_367 >= 0
x_368 >= 0
x_369 >= 0
x_370 >= 0
x_371 >= 0
x_372 >= 0
x_373 >= 0
x_374 >= 0
x_375 >= 0
x_376 >= 0
x_377 >= 0
x_378 >= 0
x_379 >= 0
x_380 >= 0
x_381 >= 0
x_382 >= 0
x_383 >= 0
x_384 >= 0
x_385 >= 0
x_386 >= 0
x_387 >= 0
x_388 >= 0
x_389 >= 0
x_390 >= 0
x_391 >= 0
x_392 >= 0
x_393 >= 0
x_394 >= 0
x_395 >= 0
x_396 >= 0
x_397 >= 0
x_398 >= 0
x_399 >= 0
x_400 >= 0
x_401 >= 0
x_402 >= 0
x_403 >= 0
x_404 >= 0
x_405 >= 0
x_406 >= 0
x_407 >= 0
x_408 >= 0
x_409 >= 0
x_410 >= 0
x_411 >= 0
x_412 >= 0
x_413 >= 0
x_414 >= 0
x_415 >= 0
x_416 >= 0
x_417 >= 0
x_418 >= 0
x_419 >= 0
x_420 >= 0
x_421 >= 0
x_422 >= 0
x_423 >= 0
x_424 >= 0
x_425 >= 0
x_426 >= 0
x_427 >= 0
x_428 >= 0
x_429 >= 0
x_430 >= 0
x_431 >= 0
General
Binaries
y_1
y_2
y_3
y_4
y_5
y_6
y_7
y_8
y_9
y_10
y_11
y_12
y_13
y_14
y_15
y_16
y_17
y_18
y_19
y_20
y_21
y_22
y_23
y_24
y_25
y_26
y_27
y_28
y_29
y_30
y_31
y_32
y_33
y_34
y_35
y_36
y_37
y_38
y_39
y_40
y_41
y_42
y_43
y_44
y_45
y_46
y_47
y_48
y_49
y_50
y_51
y_52
y_53
y_54
y_55
y_56
y_57
y_58
y_59
y_60
y_61
y_62
y_63
y_64
y_65
y_66
y_67
y_68
y_69
y_70
y_71
y_72
y_73
y_74
y_75
y_76
y_77
y_78
y_79
y_80
y_81
y_82
y_83
y_84
y_85
y_86
y_87
y_88
y_89
y_90
y_91
y_92
y_93
y_94
y_95
y_96
y_97
y_98
y_99
y_100
y_101
y_102
y_103
y_104
y_105
y_106
y_107
y_108
y_109
y_110
y_111
y_112
y_113
y_114
y_115
y_116
y_117
y_118
y_119
y_120
y_121
y_122
y_123
y_124
y_125
y_126
y_127
y_128
y_129
y_130
y_131
y_132
y_133
y_134
y_135
y_136
y_137
y_138
y_139
y_140
y_141
y_142
y_143
y_144
y_145
y_146
y_147
y_148
y_149
y_150
y_151
y_152
y_153
y_154
y_155
y_156
y_157
y_158
y_159
y_160
y_161
y_162
y_163
y_164
y_165
y_166
y_167
y_168
y_169
y_170
y_171
y_172
y_173
y_174
y_175
y_176
y_177
y_178
y_179
y_180
y_181
y_182
y_183
y_184
y_185
y_186
y_187
y_188
y_189
y_190
y_191
y_192
y_193
y_194
y_195
y_196
y_197
y_198
y_199
y_200
y_201
y_202
y_203
y_204
y_205
y_206
y_207
y_208
y_209
y_210
y_211
y_212
y_213
y_214
y_215
y_216
y_217
y_218
y_219
y_220
y_221
y_222
y_223
y_224
y_225
y_226
y_227
y_228
y_229
y_230
y_231
y_232
y_233
y_234
y_235
y_236
y_237
y_238
y_239
y_240
y_241
y_242
y_243
y_244
y_245
y_246
y_247
y_248
y_249
y_250
y_251
y_252
y_253
y_254
y_255
y_256
y_257
y_258
y_259
y_260
y_261
y_262
y_263
y_264
y_265
y_266
y_267
y_268
y_269
y_270
y_271
y_272
y_273
y_274
y_275
y_276
y_277
y_278
y_279
y_280
y_281
y_282
y_283
y_284
y_285
y_286
y_287
y_288
y_289
y_290
y_291
y_292
y_293
y_294
y_295
y_296
y_297
y_298
y_299
y_300
y_301
y_302
y_303
y_304
y_305
y_306
y_307
y_308
y_309
y_310
y_311
y_312
y_313
y_314
y_315
y_316
y_317
y_318
y_319
y_320
y_321
y_322
y_323
y_324
y_325
y_326
y_327
y_328
y_329
y_330
y_331
y_332
y_333
y_334
y_335
y_336
y_337
y_338
y_339
y_340
y_341
y_342
y_343
y_344
y_345
y_346
y_347
y_348
y_349
y_350
y_351
y_352
y_353
y_354
y_355
y_356
y_357
y_358
y_359
y_360
y_361
y_362
y_363
y_364
y_365
y_366
y_367
y_368
y_369
y_370
y_371
y_372
y_373
y_374
y_375
y_376
y_377
y_378
y_379
y_380
y_381
y_382
y_383
y_384
y_385
y_386
y_387
y_388
y_389
y_390
y_391
y_392
y_393
y_394
y_395
y_396
y_397
y_398
y_399
y_400
y_401
y_402
y_403
y_404
y_405
y_406
y_407
y_408
y_409
y_410
y_411
y_412
End
