data/solutions/exact100kb/instance130.txt
VALUE 1901452
1 101
6 100
7 64
1 9
11 62
14 81
17 62
20 55
22 55
23 78
23 24
26 100
29 33
29 30
32 36
32 33
35 39
35 36
38 42
38 39
41 45
41 42
44 48
44 45
47 77
47 48
51 75
55 60
60 61
17 61
7 62
9 64
1 71
24 73
73 75
51 76
76 77
78 80
71 80
80 81
30 98
98 100
6 102
7 103
9 104
11 105
14 106
17 107
20 108
22 109
23 110
26 111
29 112
32 113
35 114
38 115
41 116
44 117
47 118
51 119

